c A SAT instance generated from a 3-CNF formula that had 21 clauses and 7 variables
p cnf 7 21
2 -7 -3 0
2 -6 -5 0
-7 -5 6 0
-2 4 1 0
-2 -4 -3 0
2 3 1 0
-5 7 -6 0
5 3 -1 0
-5 4 7 0
-3 2 5 0
-2 -5 4 0
3 -5 -6 0
-1 -6 -5 0
-7 1 -3 0
3 2 -1 0
1 2 -3 0
-2 -7 6 0
-4 5 -3 0
2 3 7 0
-3 -4 7 0
5 7 -3 0
